5955 5754 5220 5099 4886 4565 4216 4199 3956 3825 3666 3578 3348 3286 3064 3060 3021 2922 2843 2813 2740 2669 2611 2560 2504 2482 2437 2399 2349 2309 2287 2224 2167 2121 2089 2074 2050 2048 2042 1979 1992 1964 1944 1909 1866 1885 1874 1880 1838 1850 1828 1859 1844 1846 1822 1768 1820 1800 1820 1786 1828 1823 1794 1808 1780 1775 1766 1754 1804 1745 1733 1740 1727 1712 1709 1715 1698 1694 1691 1666 1664 1683 1655 1638 1636 1623 1613 1607 1602 1601 1588 1582 1574 1568 1568 1567 1567 1562 1560 1556 1551 1547 1546 1539 1536 1528 1521 1511 1505 1499 1498 1498 1498 1498 1497 1496 1494 1494 1494 1494 1494 1488 1488 1488 1488 1488 1488 1488 1488 1488 1488 1488 1476 1476 1476 1476 1476 1476 1476 1476 1476 1471 1471 1471 1470 1470 1470 1470 1465 1465 1465 1465 1465 1465 1465 1465 1465 1465 1465 1465 1460 1460 1460 1451 1451 1446 1446 1446 1446 1446 1446 1446 1446 1446 1446 1443 1430 1420 1420 1415 1414 1414 1414 1414 1414 1414 1414 1414 1414 1414 1410 1410 1409 1409 1409 1409 1409 1409 1409 1409 1409 1409 1409 1409 1409 1409 1409 1409 1409 1409 1409 1409 1409 1409 1409 1409 1409 1409 1409 1409 1409 1409 1409 1409 1409 1409 1409 1409 1409 1409 1409 1409 1409 1409 1409 1409 1409 1409 1409 1409 1409 1409 1409 1409 1409 1409 1409 1409 1409 1409 1409 1409 1409 1409 1409 1409 1409 1409 1409 1409 1409 1409 1409 1409 1409 1409 1409 1409 1409 1409 1409 1409 1409 1409 1409 1409 1409 1409 1409 1409 1409 1409 1409 1409 1409 1409 1409 1409 1409 1409 1409 1409 1409 1409 1409 1409 1409 1409 1409 1409 1409 1409 1409 1409 1409 1409 1409 1409 1409 1409 1409 1409 1409 1409 1409 1409 1409 1409 1409 1409 1409 1409 1409 1409 1409 1409 1409 1409 1409 1409 1409 1409 1409 1409 1409 1409 1409 1409 1409 1409 1409 1409 1409 1409 1409 1409 1409 1409 1409 1409 1409 1409 1409 1409 1409 1409 1409 1409 1409 1409 1409 1409 1409 1409 1409 1409 1409 1409 1409 1409 1409 1409 1409 1409 1409 1409 1409 1409 1409 1409 1409 1409 1409 1409 1409 1409 1409 1409 1409 1409 1409 1409 1409 1409 1409 1409 1409 1409 1409 1409 1409 1409 1409 1409 1409 1409 1409 1409 1409 1409 1409 1409 1409 1409 1409 1409 1409 1409 1409 1409 1409 1409 1409 1409 1409 1409 1409 1409 1409 1409 1409 1409 1409 1409 1409 1409 1409 1409 1409 1409 1409 1409 1409 1409 1409 1409 1409 1409 1409 1409 1409 1409 1409 1409 1409 1409 1409 1409 1409 1409 1409 1409 1409 1409 1409 1409 1409 1409 1409 1409 1409 1409 1409 1409 1409 1409 1409 1409 1409 1409 1409 1409 1409 1409 1409 1409 1409 1409 1409 1409 1409 1409 1409 1409 1409 1409 1409 1409 1409 1409 1409 1409 1409 1409 1409 1409 1409 1409 1409 1409 1409 1409 1409 1409 1409 1409 1409 1409 1409 1409 1409 1409 1409 1409 1409 1409 1409 1409 1409 1409 1409 1409 1409 1409 1409 1409 1409 1409 1409 1409 1409 1409 1409 1409 1409 1409 1409 1409 1409 1409 1409 1409 1409 1409 1409 1409 1409 1409 1409 1409 1409 1409 1409 1409 1409 1409 1409 1409 1409 1409 1409 1409 1409 1409 1409 1409 1409 1409 1409 1409 1409 1409 1409 1409 1409 1409 1409 1409 1409 1409 1409 1409 1409 1409 1409 1409 1409 1409 1409 1409 1409 1409 1409 1409 1409 1409 1409 1409 1409 1409 1409 1409 1409 1409 1409 1409 1409 1409 1409 1409 1409 1409 1409 1409 1409 1409 1409 1409 1409 1409 1409 1409 1409 1409 1409 1409 1409 1409 1409 1409 1409 1409 1409 1409 1409 1409 1409 1409 1409 1409 1409 1409 1409 1409 1409 1409 1409 1409 1409 1409 1409 1409 1409 1409 1409 1409 1409 1409 1409 1409 1409 1409 1409 1409 1409 1409 1409 1409 1409 1409 1409 1409 1409 1409 1409 1409 1409 1409 1409 1409 1409 1409 1409 
4156 3960 3420 3299 3086 2765 2429 2399 2157 2031 1871 1783 1552 1497 1267 1264 1228 1125 1050 1023 947 879 818 773 712 690 649 616 585 539 508 442 405 362 331 304 276 261 253 240 228 216 209 179 141 137 129 128 127 122 122 117 117 114 114 114 110 110 105 105 90 85 77 63 63 52 52 52 49 28 28 24 18 18 18 4 4 4 4 4 4 0 0 0 0 0 0 0 0 0 0 0 0 0 0 0 0 0 0 0 0 0 0 0 0 0 0 0 0 0 0 0 0 0 0 0 0 0 0 0 0 0 0 0 0 0 0 0 0 0 0 0 0 0 0 0 0 0 0 0 0 0 0 0 0 0 0 0 0 0 0 0 0 0 0 0 0 0 0 0 0 0 0 0 0 0 0 0 0 0 0 0 0 0 0 0 0 0 0 0 0 0 0 0 0 0 0 0 0 0 0 0 0 0 0 0 0 0 0 0 0 0 0 0 0 0 0 0 0 0 0 0 0 0 0 0 0 0 0 0 0 0 0 0 0 0 0 0 0 0 0 0 0 0 0 0 0 0 0 0 0 0 0 0 0 0 0 0 0 0 0 0 0 0 0 0 0 0 0 0 0 0 0 0 0 0 0 0 0 0 0 0 0 0 0 0 0 0 0 0 0 0 0 0 0 0 0 0 0 0 0 0 0 0 0 0 0 0 0 0 0 0 0 0 0 0 0 0 0 0 0 0 0 0 0 0 0 0 0 0 0 0 0 0 0 0 0 0 0 0 0 0 0 0 0 0 0 0 0 0 0 0 0 0 0 0 0 0 0 0 0 0 0 0 0 0 0 0 0 0 0 0 0 0 0 0 0 0 0 0 0 0 0 0 0 0 0 0 0 0 0 0 0 0 0 0 0 0 0 0 0 0 0 0 0 0 0 0 0 0 0 0 0 0 0 0 0 0 0 0 0 0 0 0 0 0 0 0 0 0 0 0 0 0 0 0 0 0 0 0 0 0 0 0 0 0 0 0 0 0 0 0 0 0 0 0 0 0 0 0 0 0 0 0 0 0 0 0 0 0 0 0 0 0 0 0 0 0 0 0 0 0 0 0 0 0 0 0 0 0 0 0 0 0 0 0 0 0 0 0 0 0 0 0 0 0 0 0 0 0 0 0 0 0 0 0 0 0 0 0 0 0 0 0 0 0 0 0 0 0 0 0 0 0 0 0 0 0 0 0 0 0 0 0 0 0 0 0 0 0 0 0 0 0 0 0 0 0 0 0 0 0 0 0 0 0 0 0 0 0 0 0 0 0 0 0 0 0 0 0 0 0 0 0 0 0 0 0 0 0 0 0 0 0 0 0 0 0 0 0 0 0 0 0 0 0 0 0 0 0 0 0 0 0 0 0 0 0 0 0 0 0 0 0 0 0 0 0 0 0 0 0 0 0 0 0 0 0 0 0 0 0 0 0 0 0 0 0 0 0 0 0 0 0 0 0 0 0 0 0 0 0 0 0 0 0 0 0 0 0 0 0 0 0 0 0 0 0 0 0 0 0 0 0 0 0 0 0 0 0 0 0 0 0 0 0 0 0 0 0 0 0 0 